
Gurobi 9.5.0 (linux64) logging started Fri Dec 15 11:25:02 2023

Set parameter LogFile to value "/lustre1/scratch/348/vsc34888/JointResearch/05.Models/06.Benchmarking/K.Investments_per_hour/RTS24_mod1_ByStages_nc400/openStarNet_RTS24_mod1_ByStages_nc400.log"
Set parameter Method to value 2
Set parameter MIPFocus to value 1
Set parameter Presolve to value 2
Set parameter RINS to value 100
Set parameter MIPGap to value 0.01
Set parameter Threads to value 36
Set parameter TimeLimit to value 259200
Set parameter IterationLimit to value 760000000
Gurobi Optimizer version 9.5.0 build v9.5.0rc5 (linux64)
Thread count: 36 physical cores, 36 logical processors, using up to 36 threads
Optimize a model with 142358 rows, 95936 columns and 387662 nonzeros
Model fingerprint: 0xe172801a
Variable types: 95915 continuous, 21 integer (21 binary)
Coefficient statistics:
  Matrix range     [1e-03, 9e+02]
  Objective range  [1e+00, 1e+00]
  Bounds range     [3e-05, 3e+00]
  RHS range        [3e-05, 3e+00]
Presolve removed 84686 rows and 48491 columns
Presolve time: 0.62s
Presolved: 57672 rows, 47445 columns, 208132 nonzeros
Variable types: 47424 continuous, 21 integer (21 binary)
Root relaxation presolved: 57672 rows, 47445 columns, 208132 nonzeros

Root barrier log...

Ordering time: 0.01s

Barrier statistics:
 Dense cols : 21
 AA' NZ     : 3.864e+05
 Factor NZ  : 1.146e+06 (roughly 50 MB of memory)
 Factor Ops : 2.715e+07 (less than 1 second per iteration)
 Threads    : 35

                  Objective                Residual
Iter       Primal          Dual         Primal    Dual     Compl     Time
   0   6.64853632e+05 -5.20459840e+08  5.37e+00 3.90e+02  1.10e+04     1s
   1   1.04459249e+05 -1.35928139e+08  7.24e-01 2.44e-08  1.55e+03     1s
   2   4.16654041e+04 -7.37801127e+07  1.93e-01 1.09e-08  6.44e+02     1s
   3   2.07547254e+04 -7.06040749e+06  9.91e-03 2.13e-09  5.38e+01     1s
   4   1.51841070e+04 -6.24551269e+05  4.57e-04 1.79e-10  4.77e+00     1s
   5   8.80293656e+03 -1.43658506e+05  2.99e-05 1.46e-10  1.14e+00     1s
   6   3.46441468e+03 -3.52136616e+04  4.45e-06 3.22e-11  2.88e-01     1s
   7   1.20966555e+03 -8.51672489e+03  9.62e-07 6.98e-12  7.24e-02     1s
   8   4.22097457e+02 -1.61230017e+03  1.97e-07 3.64e-12  1.51e-02     1s
   9   2.75892193e+02 -7.25701187e+02  1.02e-07 9.09e-13  7.46e-03     1s
  10   1.67486230e+02 -2.18706715e+02  4.42e-08 1.82e-12  2.88e-03     1s
  11   1.10771669e+02 -4.67988212e+01  2.03e-08 9.09e-13  1.17e-03     1s
  12   8.68706427e+01  8.01450234e+00  1.22e-08 9.09e-13  5.87e-04     1s
  13   7.24077917e+01  2.05085381e+01  7.57e-09 9.09e-13  3.86e-04     1s
  14   7.04485277e+01  3.23685201e+01  6.95e-09 1.82e-12  2.83e-04     1s
  15   6.59942399e+01  3.65565103e+01  5.57e-09 9.09e-13  2.19e-04     1s
  16   6.03946932e+01  3.76545197e+01  3.71e-09 1.82e-12  1.69e-04     1s
  17   5.80357059e+01  4.18716367e+01  2.98e-09 9.09e-13  1.20e-04     1s
  18   5.39537094e+01  4.34823074e+01  1.74e-09 1.82e-12  7.80e-05     1s
  19   5.27980713e+01  4.46280545e+01  1.39e-09 1.82e-12  6.08e-05     2s
  20   5.17105148e+01  4.57770828e+01  1.02e-09 9.09e-13  4.42e-05     2s
  21   5.05265667e+01  4.64435618e+01  6.41e-10 9.09e-13  3.04e-05     2s
  22   5.02015557e+01  4.69570940e+01  5.29e-10 4.55e-13  2.42e-05     2s
  23   4.97209853e+01  4.73200140e+01  3.66e-10 9.09e-13  1.79e-05     2s
  24   4.96402229e+01  4.74919764e+01  3.39e-10 9.09e-13  1.60e-05     2s
  25   4.93097952e+01  4.76818390e+01  2.26e-10 1.82e-12  1.21e-05     2s
  26   4.90859074e+01  4.78658347e+01  1.51e-10 9.09e-13  9.08e-06     2s
  27   4.89899621e+01  4.79440392e+01  1.18e-10 9.09e-13  7.79e-06     2s
  28   4.89131150e+01  4.81488050e+01  9.38e-11 1.82e-12  5.69e-06     2s
  29   4.88647890e+01  4.82165465e+01  7.75e-11 9.09e-13  4.83e-06     2s
  30   4.87785693e+01  4.82681538e+01  4.82e-11 1.82e-12  3.80e-06     2s
  31   4.87363390e+01  4.83766892e+01  3.36e-11 9.09e-13  2.68e-06     2s
  32   4.87158338e+01  4.85109201e+01  2.85e-11 9.09e-13  1.53e-06     2s
  33   4.86768073e+01  4.85842112e+01  1.49e-10 9.09e-13  6.89e-07     2s
  34   4.86573235e+01  4.85979268e+01  1.38e-10 9.09e-13  4.42e-07     2s
  35   4.86515624e+01  4.86070226e+01  1.12e-10 1.82e-12  3.32e-07     2s
  36   4.86487447e+01  4.86122787e+01  9.40e-11 9.09e-13  2.71e-07     2s
  37   4.86464929e+01  4.86204274e+01  7.54e-11 1.82e-12  1.94e-07     2s
  38   4.86430194e+01  4.86260335e+01  2.18e-10 9.09e-13  1.26e-07     2s
  39   4.86412269e+01  4.86310128e+01  1.46e-10 1.82e-12  7.60e-08     2s
  40   4.86408290e+01  4.86338495e+01  1.48e-10 9.09e-13  5.20e-08     2s
  41   4.86402316e+01  4.86374017e+01  2.18e-10 1.82e-12  2.11e-08     2s
  42   4.86397510e+01  4.86378919e+01  1.40e-10 9.09e-13  1.38e-08     2s
  43   4.86395133e+01  4.86383537e+01  9.86e-11 9.09e-13  8.63e-09     2s
  44   4.86394363e+01  4.86384955e+01  9.88e-11 1.06e-12  7.00e-09     2s
  45   4.86393614e+01  4.86388112e+01  1.00e-10 9.09e-13  4.10e-09     2s
  46   4.86393457e+01  4.86388312e+01  1.01e-10 9.09e-13  3.83e-09     2s
  47   4.86393278e+01  4.86388462e+01  7.71e-11 9.09e-13  3.59e-09     2s
  48   4.86393085e+01  4.86388594e+01  9.23e-11 1.82e-12  3.34e-09     2s
  49   4.86392904e+01  4.86388906e+01  1.73e-10 2.88e-12  2.98e-09     2s
  50   4.86392579e+01  4.86389615e+01  1.96e-10 5.82e-12  2.21e-09     2s
  51   4.86392086e+01  4.86390652e+01  9.35e-10 3.81e-12  1.07e-09     2s
  52   4.86392009e+01  4.86390764e+01  6.99e-10 1.00e-11  9.27e-10     2s
  53   4.86391955e+01  4.86390952e+01  5.41e-10 8.25e-12  7.47e-10     2s
  54   4.86391946e+01  4.86390985e+01  5.13e-10 8.37e-12  7.15e-10     2s
  55   4.86391933e+01  4.86391107e+01  4.99e-10 9.35e-12  6.15e-10     2s
  56   4.86391863e+01  4.86391603e+01  3.23e-10 2.12e-12  1.93e-10     2s
  57   4.86391787e+01  4.86391693e+01  2.23e-09 2.83e-12  6.97e-11     2s
  58   4.86391776e+01  4.86391765e+01  4.08e-10 3.64e-12  7.95e-12     2s
  59   4.86391774e+01  4.86391774e+01  7.00e-10 1.36e-12  3.24e-14     3s

Barrier solved model in 59 iterations and 2.51 seconds (2.26 work units)
Optimal objective 4.86391774e+01


Root relaxation: objective 4.863918e+01, 8039 iterations, 2.26 seconds (2.03 work units)

    Nodes    |    Current Node    |     Objective Bounds      |     Work
 Expl Unexpl |  Obj  Depth IntInf | Incumbent    BestBd   Gap | It/Node Time

     0     0   48.63918    0   18          -   48.63918      -     -    4s
H    0     0                      99.5576899   48.63918  51.1%     -    6s
H    0     0                      89.0658804   49.65940  44.2%     -   12s
     0     0   49.79382    0   12   89.06588   49.79382  44.1%     -   13s
     0     0   49.79382    0   11   89.06588   49.79382  44.1%     -   17s
     0     0   49.94547    0   13   89.06588   49.94547  43.9%     -   18s
     0     0   49.94547    0   11   89.06588   49.94547  43.9%     -   18s
     0     0   49.94547    0   11   89.06588   49.94547  43.9%     -   19s
     0     0   50.04224    0   12   89.06588   50.04224  43.8%     -   21s
     0     0   50.07840    0   12   89.06588   50.07840  43.8%     -   22s
     0     0   50.08530    0   12   89.06588   50.08530  43.8%     -   23s
     0     0   50.08605    0   12   89.06588   50.08605  43.8%     -   23s
     0     0   50.23877    0   15   89.06588   50.23877  43.6%     -   26s
H    0     0                      85.8011767   50.27047  41.4%     -   27s
     0     0   50.27047    0   14   85.80118   50.27047  41.4%     -   27s
H    0     0                      82.3345362   50.27202  38.9%     -   27s
     0     0   50.27202    0   13   82.33454   50.27202  38.9%     -   27s
     0     0   50.27232    0   14   82.33454   50.27232  38.9%     -   27s
     0     0   50.27265    0   14   82.33454   50.27265  38.9%     -   28s
     0     0   50.27297    0   15   82.33454   50.27297  38.9%     -   28s
     0     0   50.27303    0   15   82.33454   50.27303  38.9%     -   28s
     0     0   50.28679    0   12   82.33454   50.28679  38.9%     -   30s
     0     0   50.29629    0   15   82.33454   50.29629  38.9%     -   31s
     0     0   50.29633    0   15   82.33454   50.29633  38.9%     -   31s
H    0     0                      77.9196307   50.29633  35.5%     -   35s
     0     0   50.31550    0   13   77.91963   50.31550  35.4%     -   36s
H    0     0                      67.8910451   50.31550  25.9%     -  240s
     0     2   50.31550    0   13   67.89105   50.31550  25.9%     -  241s
     3     8   51.36758    2   15   67.89105   50.40463  25.8%  4921  248s
     7    16   51.66158    3   16   67.89105   51.52818  24.1%  4917  251s
    15    32   51.68417    4   16   67.89105   51.66357  23.9%  4611  255s
    31    62   52.77708    5   15   67.89105   51.69790  23.9%  4678  268s
    63    92   54.11092    6   15   67.89105   52.80190  22.2%  5631  285s
    99   122   55.55538    7   14   67.89105   53.17596  21.7%  4938  326s
   135   150   57.66266    8   13   67.89105   53.17596  21.7%  4426  332s
   171   172   61.84651    9   12   67.89105   53.17596  21.7%  4228  339s
   207   190   63.35040    9   12   67.89105   53.17596  21.7%  4043  348s
   259   194   64.64369   10   11   67.89105   53.17596  21.7%  3784  384s
   303   205     cutoff   11        67.89105   53.17596  21.7%  3755  392s
   360   207   59.13064   10   11   67.89105   53.17596  21.7%  3606  400s
   416   221   61.42318   11   10   67.89105   53.17596  21.7%  3544  409s
   476   235   65.27673   12    9   67.89105   53.17596  21.7%  3488  535s
   518   243   66.09918   13    8   67.89105   53.17596  21.7%  3440  544s
   595   256     cutoff   15        67.89105   53.94202  20.5%  3287  552s
   683   274   59.90601    7   14   67.89105   53.94202  20.5%  3167  562s
   770   281   63.66902    9   12   67.89105   53.94202  20.5%  3053  570s
   872   316   67.31942   10   11   67.89105   53.94202  20.5%  2921  579s
   963   319     cutoff   11        67.89105   53.94202  20.5%  2835  590s
  1084   335     cutoff   10        67.89105   53.94202  20.5%  2726  598s
  1191   334     cutoff   10        67.89105   56.61567  16.6%  2673  607s
  1307   357   58.34647    8   13   67.89105   56.61567  16.6%  2619  616s
  1414   347   62.84690   10   11   67.89105   56.61567  16.6%  2580  624s
  1541   366   66.40674   10   11   67.89105   56.61567  16.6%  2518  633s
  1679   378     cutoff   11        67.89105   56.61567  16.6%  2451  641s
  1804   359   66.24058    9   11   67.89105   56.61567  16.6%  2425  650s
  1958   369     cutoff   10        67.89105   59.59736  12.2%  2370  662s
  2118   391     cutoff   10        67.89105   61.14857  9.93%  2326  670s
  2260   360   64.83786   10   10   67.89105   61.33117  9.66%  2296  680s
  2450   362   67.25494   11   10   67.89105   61.33923  9.65%  2242  690s
  2620   321     cutoff   12        67.89105   62.77671  7.53%  2204  700s
  2851   318     cutoff   14        67.89105   63.33337  6.71%  2133  711s
  3075   276   66.16754   15    6   67.89105   64.27291  5.33%  2082  720s
  3337   231   66.97538   12    9   67.89105   64.58108  4.88%  2017  755s
  3439   146     cutoff   12        67.89105   64.68176  4.73%  2007  766s
  3724    42   66.82182   10   10   67.89105   64.72197  4.67%  1946  774s
  3929     1     cutoff   13        67.89105   65.93476  2.88%  1910  779s

Cutting planes:
  Gomory: 1
  Implied bound: 358
  MIR: 1558
  Relax-and-lift: 266

Explored 3981 nodes (7611830 simplex iterations) in 780.05 seconds (1487.01 work units)
Thread count was 36 (of 36 available processors)

Solution count 6: 67.891 77.9196 82.3345 ... 99.5577

Optimal solution found (tolerance 1.00e-02)
Best objective 6.789104510166e+01, best bound 6.780633567164e+01, gap 0.1248%

Gurobi 9.5.0 (linux64) logging started Fri Dec 15 11:39:08 2023

Set parameter LogFile to value "/lustre1/scratch/348/vsc34888/JointResearch/05.Models/06.Benchmarking/K.Investments_per_hour/RTS24_mod1_ByStages_nc400/openStarNet_RTS24_mod1_ByStages_nc400.log"
Set parameter Method to value 2
Set parameter MIPFocus to value 1
Set parameter Presolve to value 2
Set parameter RINS to value 100
Set parameter MIPGap to value 0.01
Set parameter Threads to value 36
Set parameter TimeLimit to value 259200
Set parameter IterationLimit to value 760000000
No parameters matching 'relax_integrality' found
Gurobi Optimizer version 9.5.0 build v9.5.0rc5 (linux64)
Thread count: 36 physical cores, 36 logical processors, using up to 36 threads
Optimize a model with 142358 rows, 95915 columns and 353957 nonzeros
Model fingerprint: 0x99662a45
Coefficient statistics:
  Matrix range     [1e-03, 9e+02]
  Objective range  [1e+00, 1e+00]
  Bounds range     [3e-05, 3e+00]
  RHS range        [3e-05, 2e+01]
Presolve removed 119524 rows and 54721 columns
Presolve time: 0.19s
Presolved: 22834 rows, 41996 columns, 101678 nonzeros

Ordering time: 0.00s

Barrier statistics:
 AA' NZ     : 5.901e+04
 Factor NZ  : 2.145e+05 (roughly 22 MB of memory)
 Factor Ops : 3.049e+06 (less than 1 second per iteration)
 Threads    : 36

                  Objective                Residual
Iter       Primal          Dual         Primal    Dual     Compl     Time
   0   1.88280186e+06 -2.88635866e+08  2.56e+01 2.83e+02  3.81e+04     0s
   1   1.35484759e+05 -1.75159156e+08  1.53e+00 7.89e-12  4.15e+03     0s
   2   4.61823424e+04 -4.65431616e+07  3.38e-01 6.18e-12  8.67e+02     0s
   3   2.42432652e+04 -5.38130724e+06  1.32e-02 4.97e-12  7.81e+01     0s
   4   1.84517828e+04 -1.05737313e+06  1.89e-04 3.88e-12  1.50e+01     0s
   5   1.29137996e+04 -2.27041395e+05  7.90e-12 1.90e-12  3.34e+00     0s
   6   7.13712519e+03 -5.11387532e+04  6.37e-12 7.87e-13  8.10e-01     0s
   7   2.43366461e+03 -1.37487545e+04  3.15e-12 9.09e-13  2.25e-01     0s
   8   8.19254285e+02 -3.48630079e+03  3.22e-12 4.55e-13  5.99e-02     0s
   9   3.08925288e+02 -1.22462678e+03  2.92e-12 4.55e-13  2.13e-02     0s
  10   2.08608935e+02 -4.36170738e+02  1.40e-12 9.09e-13  8.97e-03     0s
  11   1.39958636e+02 -1.50706551e+02  6.64e-13 9.09e-13  4.04e-03     0s
  12   9.25811179e+01  1.05295611e+01  3.73e-13 9.09e-13  1.14e-03     0s
  13   7.86110719e+01  5.15183570e+01  1.13e-12 9.09e-13  3.77e-04     0s
  14   7.34545072e+01  6.01515545e+01  3.95e-12 9.09e-13  1.85e-04     0s
  15   7.07006401e+01  6.49634995e+01  5.56e-12 9.09e-13  7.98e-05     0s
  16   6.90428979e+01  6.67151792e+01  5.29e-12 4.55e-13  3.24e-05     0s
  17   6.83329394e+01  6.74008556e+01  1.38e-11 9.09e-13  1.30e-05     0s
  18   6.79823173e+01  6.77957541e+01  2.83e-11 2.27e-13  2.59e-06     0s
  19   6.79164366e+01  6.78627156e+01  1.91e-11 4.55e-13  7.47e-07     0s
  20   6.78923706e+01  6.78874340e+01  6.22e-11 4.55e-13  6.87e-08     0s
  21   6.78911953e+01  6.78905284e+01  2.71e-11 4.55e-13  9.27e-09     0s
  22   6.78910477e+01  6.78910401e+01  5.58e-11 1.82e-12  1.05e-10     0s
  23   6.78910451e+01  6.78910451e+01  2.40e-11 4.55e-13  1.61e-15     0s

Barrier solved model in 23 iterations and 0.49 seconds (0.46 work units)
Optimal objective 6.78910451e+01

Crossover log...

    4692 DPushes remaining with DInf 0.0000000e+00                 1s
       0 DPushes remaining with DInf 0.0000000e+00                 1s

    1125 PPushes remaining with PInf 0.0000000e+00                 1s
       0 PPushes remaining with PInf 0.0000000e+00                 1s

  Push phase complete: Pinf 0.0000000e+00, Dinf 1.2026675e-13      1s

Iteration    Objective       Primal Inf.    Dual Inf.      Time
    1201    6.7891045e+01   0.000000e+00   0.000000e+00      1s

Use crossover to convert LP symmetric solution to basic solution...
Crossover log...

       0 DPushes remaining with DInf 0.0000000e+00                 1s

     635 PPushes remaining with PInf 0.0000000e+00                 1s
       0 PPushes remaining with PInf 0.0000000e+00                 1s

  Push phase complete: Pinf 0.0000000e+00, Dinf 1.3766226e-13      1s

Iteration    Objective       Primal Inf.    Dual Inf.      Time
    1971    6.7891045e+01   0.000000e+00   0.000000e+00      1s

Solved in 1971 iterations and 0.77 seconds (0.62 work units)
Optimal objective  6.789104510e+01
